p cnf 65 73
-152 0
-154 0
-157 0
-11 -159 0
-158 -159 0
-162 0
-164 0
-165 0
-166 0
-167 0
-168 0
-169 0
-170 0
-171 0
-172 0
-173 0
-174 0
-175 0
-159 -176 0
-177 0
-178 0
-179 0
-180 0
-181 0
-182 0
-185 0
-187 0
-190 0
-193 0
-194 0
-197 0
-198 0
-200 0
-201 0
-202 0
-203 0
-204 0
-207 0
-209 0
-210 0
-211 0
-212 0
-213 0
-214 0
-215 0
-156 -216 0
-217 0
-218 0
-219 0
-220 0
-221 0
-222 0
-223 0
-224 0
-225 0
-11 -2151 0
-158 -2151 0
-176 -2151 0
-186 -2151 0
-159 -191 0
-191 -2151 0
-192 -2151 0
-2472 0
-2474 0
-2494 0
-159 -192 0
-186 -2152 0
-159 -186 0
-11 -2152 0
-158 -2152 0
-176 -2152 0
-191 -2152 0
-192 -2152 0
